
Gurobi 11.0.3 (linux64) logging started Fri Nov 22 21:34:00 2024

Set parameter LogFile to value "/home/yihong/Coding/OR_SUC/SUC_results_bigM100000_thread4/case24_ieee_rts_theta0.1_epsilon0.025_gurobi_seed780000_num_gen100_N_WDR100_load_scaling_factor1_exact_T16quadra_cost.txt"
Set parameter TimeLimit to value 3600
Gurobi Optimizer version 11.0.3 build v11.0.3rc0 (linux64 - "Ubuntu 20.04.6 LTS")

CPU model: AMD EPYC 7532 32-Core Processor, instruction set [SSE2|AVX|AVX2]
Thread count: 64 physical cores, 128 logical processors, using up to 4 threads

Optimize a model with 34563 rows, 20041 columns and 474826 nonzeros
Model fingerprint: 0x4ccac68c
Model has 1600 quadratic constraints
Variable types: 18341 continuous, 1700 integer (1700 binary)
Coefficient statistics:
  Matrix range     [3e-04, 1e+05]
  QMatrix range    [2e-03, 8e-03]
  QLMatrix range   [6e-02, 6e+01]
  Objective range  [1e+00, 1e+00]
  Bounds range     [1e+00, 1e+00]
  RHS range        [1e+00, 1e+05]
Presolve removed 28003 rows and 8740 columns
Presolve time: 0.15s
Presolved: 6560 rows, 11301 columns, 44675 nonzeros
Presolved model has 1600 quadratic constraint(s)
Variable types: 9645 continuous, 1656 integer (1656 binary)

Root relaxation: objective 2.558461e+04, 4866 iterations, 0.10 seconds (0.13 work units)

    Nodes    |    Current Node    |     Objective Bounds      |     Work
 Expl Unexpl |  Obj  Depth IntInf | Incumbent    BestBd   Gap | It/Node Time

     0     0 25584.6054    0   21          - 25584.6054      -     -    0s
     0     0 261923.881    0  458          - 261923.881      -     -    0s
     0     0 452414.348    0  317          - 452414.348      -     -    0s
     0     0 452421.667    0  205          - 452421.667      -     -    0s
     0     0 452769.431    0  170          - 452769.431      -     -    0s
     0     0 453016.144    0  167          - 453016.144      -     -    1s
     0     0 453016.144    0  167          - 453016.144      -     -    1s
     0     2 453016.176    0  167          - 453016.176      -     -    1s
H  255   256                    458229.46651 453034.725  1.13%  31.4    4s
*  255   256              87    458229.46651 453034.725  1.13%  31.9    4s
H  296   246                    453559.43535 453036.353  0.12%  32.9    4s
*  296   246              99    453559.43535 453036.353  0.12%  32.9    4s
   357   264 453046.251   10  144 453559.435 453036.353  0.12%  35.1    5s
   507   370 453087.312   66  245 453559.435 453036.353  0.12%  32.6   26s
H  848   382                    453558.25773 453052.734  0.11%  55.9   29s
*  848   382              64    453558.25773 453052.734  0.11%  56.2   29s
   851   392 453232.153   54   56 453558.258 453052.734  0.11%  56.4   30s
H  853   374                    453539.82331 453052.734  0.11%  56.3   30s
*  853   374              55    453539.82331 453052.734  0.11%  56.4   30s
H  866   352                    453479.47976 453052.734  0.09%  55.6   30s
*  866   352              64    453479.47976 453052.734  0.09%  55.7   30s
H  876   333                    453374.70887 453052.734  0.07%  55.9   30s
*  876   333              66    453374.70887 453052.734  0.07%  56.0   30s

Cutting planes:
  Gomory: 3
  Implied bound: 21
  MIR: 45
  Flow cover: 31
  Relax-and-lift: 1

Explored 883 nodes (63116 simplex iterations) in 30.94 seconds (26.28 work units)
Thread count was 4 (of 128 available processors)

Solution count 7: 453375 453375 453479 ... 458229

Optimal solution found (tolerance 1.00e-03)
Warning: max constraint violation (1.0648e-08) exceeds tolerance
Best objective 4.533747088684e+05, best bound 4.530527337183e+05, gap 0.0710%
